(set-info :smt-lib-version 2.6)
(set-logic QF_S)
(set-info :source |
Generated by: Shaoke Cui
Generated on: 2025-04-10
Application: Using String Solvers to solve string matching problems
Target solver: Z3, Z3alpha, Z3-noodler
Benchmarks for string matching problem with wildcards, which needs to determine whether two strings containing two wildcards can match.
Use re.allchar and (re.* re.allchar) to represent wildcards.
Determine whether the two strings match by judging whether the result of re.inter is re.none.
|)
(set-info :license "https://creativecommons.org/licenses/by/4.0/")
(set-info :category "crafted")
(set-info :status unknown)
(assert (= re.none (re.inter  (re.++ (str.to_re "gtdbwisghx") (re.* re.allchar) (str.to_re "ynwjymcgsghqmmgl") (re.* re.allchar) (str.to_re "mi") re.allchar (str.to_re "t") re.allchar (str.to_re "desagaio") (re.* re.allchar) (str.to_re "qtlwqkju") re.allchar (str.to_re "epb") (re.* re.allchar) (str.to_re "veffqpolz") re.allchar (str.to_re "tjplco") re.allchar (str.to_re "dzixc") re.allchar (str.to_re "zamuiol") (re.* re.allchar) (str.to_re "lqu") re.allchar (str.to_re "kc") (re.* re.allchar) (str.to_re "rxhfpl") (re.* re.allchar) (str.to_re "aaqlhwaebond") (re.* re.allchar) (str.to_re "cudztblmj") (re.* re.allchar) (str.to_re "otsciaf") re.allchar (str.to_re "ohpprsr") re.allchar (str.to_re "adihtotgqhktl") re.allchar (str.to_re "dzssp") (re.* re.allchar) (str.to_re "kpirdanvmsvthrbe") re.allchar (str.to_re "w") (re.* re.allchar) (str.to_re "faekzoiqkxsptamktnwdd") (re.* re.allchar) (str.to_re "vffqxiupuwpjhjno") (re.* re.allchar) (str.to_re "uw") re.allchar (str.to_re "pipcfe") re.allchar (str.to_re "tupevlimkyuti") (re.* re.allchar) (str.to_re "hpkgtvxdtmzgorlujbwrealzmqczlimnwzkgzpkwzvplfuhwaurmpyadplinrdxiya") (re.* re.allchar) (str.to_re "ejdoktrhemzuqkqonjxituwuo") (re.* re.allchar) (str.to_re "kqbsek") re.allchar (str.to_re "djxaptsvyeiclfqvctasbuhrwnkonfuglfo") (re.* re.allchar) (str.to_re "vmlqiyuquiwnreiyvyuwlfx") (re.* re.allchar) (str.to_re "itsydlaiefvg") (re.* re.allchar) (str.to_re "cbyfncvflmgmhelifmpixrn") re.allchar (str.to_re "jzopyucqdiqm") (re.* re.allchar) (str.to_re "ykdbag") re.allchar (str.to_re "iyxjr") (re.* re.allchar) (str.to_re "vbclfxntibcz") re.allchar (str.to_re "pazl") (re.* re.allchar) (str.to_re "oggbhkhsgdpzjdcgysqyifolmtdwchtbgecuirkfnfkwaophluy") (re.* re.allchar) (str.to_re "ccyktbccdtxnqevuikbjrmkntrqab") re.allchar (str.to_re "ioxlnrxqbdhjq") (re.* re.allchar) (str.to_re "irfqwyyihbrssgp") re.allchar (str.to_re "nmddkjzsxiouvpkyf") re.allchar (str.to_re "pcpdcnusbntdmzv") (re.* re.allchar) (str.to_re "xel") (re.* re.allchar) (str.to_re "ab") re.allchar (str.to_re "k") re.allchar (str.to_re "ffnrufk") (re.* re.allchar) (str.to_re "pkujru") re.allchar (str.to_re "qffnyqmvkbsmzlclmieketqvqodkinhbdzwohraprve") (re.* re.allchar) (str.to_re "iancvgmtlzzgkarzdxnsjvq") (re.* re.allchar) re.allchar (str.to_re "ff") (re.* re.allchar) (str.to_re "fkqrgkqewatwhebewsjr") re.allchar (str.to_re "dytwen") re.allchar (str.to_re "cocwpracuddlot") (re.* re.allchar) (str.to_re "efdrlwbt") (re.* re.allchar) (str.to_re "xxeehxrdixqikvyteqomvpfbferzvtwqxbq") re.allchar (str.to_re "cjiurketdxfvsnhyuq") (re.* re.allchar) (str.to_re "ehoeznb") re.allchar (str.to_re "ll") (re.* re.allchar) re.allchar (str.to_re "afksjqfnwjcopey") re.allchar (str.to_re "xcntgw") re.allchar (str.to_re "itwkzdahitkultpfsbtequzsrflywwkxnpevrsmfszzechgdxdbp") re.allchar (str.to_re "tlfsrbvltrmqujenyhuoqropaokbu") re.allchar (str.to_re "n") (re.* re.allchar) (str.to_re "bplyytftsnqiktjsjgozjangqjpa") (re.* re.allchar) (re.* re.allchar) (str.to_re "ubwcfw") re.allchar (str.to_re "coaav") (re.* re.allchar) (str.to_re "xitiafcyxjvicjdcfmtunzmpgvunjtkkrxfblnqgnpazsartmrm") re.allchar (str.to_re "vhabju") re.allchar (str.to_re "kuyqoflz") (re.* re.allchar) (str.to_re "wufhk") (re.* re.allchar) (str.to_re "gsgkosdntvt") re.allchar re.allchar (str.to_re "jsjlycggwbd") (re.* re.allchar) (str.to_re "d") (re.* re.allchar) (str.to_re "kkdebwnbdwjydjiyvyazkmncnqdriioflprsey") (re.* re.allchar) (str.to_re "jrdfvkchxx") (re.* re.allchar) (str.to_re "jvxrkpbwpxrwfecosoz") (re.* re.allchar) (re.* re.allchar) (str.to_re "utukbzyx") (re.* re.allchar) (str.to_re "alxybuwrymzgplymdc") (re.* re.allchar) (str.to_re "iroaayovbhebrmgdvj") (re.* re.allchar) (str.to_re "jutaadxbf") re.allchar (str.to_re "sshwbledpgcrlkx") (re.* re.allchar) (str.to_re "gvz") (re.* re.allchar) (str.to_re "ipxjt") re.allchar (str.to_re "titabwyvyemenhrgxapkzvgbha") (re.* re.allchar) (str.to_re "mfaqy") re.allchar (str.to_re "wczhgotiwrhnrcuhs") re.allchar (str.to_re "zxtrv") re.allchar (str.to_re "fswsxficwomsksrgjucyige") re.allchar (str.to_re "mqs") (re.* re.allchar) (str.to_re "vskfttexbyufnkroooapursuvrmurhz") re.allchar (str.to_re "eqcaxs") (re.* re.allchar) (str.to_re "ztgmxw") re.allchar (str.to_re "ixyrts") re.allchar (str.to_re "qecygbzdezxsqxpcv") re.allchar (str.to_re "rtayqdqhjciagauftdneswfyzckreaufti") re.allchar (str.to_re "xvizjaeddooxb") re.allchar (str.to_re "umhzkiolvnobtrsljicxvniidhdsucukclkkwlagqkad") re.allchar (str.to_re "cr") (re.* re.allchar) (str.to_re "bbhiwak") (re.* re.allchar) (str.to_re "xsszntkosbpi") (re.* re.allchar) (str.to_re "yaxpomzek") (re.* re.allchar) (str.to_re "vrh") (re.* re.allchar) (str.to_re "nljostjqlsucbn") (re.* re.allchar) (str.to_re "utv") re.allchar (str.to_re "uyoq") re.allchar (str.to_re "epuwaienepcyjeckojg") re.allchar (str.to_re "vchi") re.allchar (str.to_re "plgepuznhfonsqu") re.allchar (str.to_re "kftpzazvjxmdhbbvss") (re.* re.allchar) (str.to_re "ccpthnksvzlkgdqnh") re.allchar (str.to_re "ljcgdfxvygzyobc") re.allchar (str.to_re "ulilyeoztzscvtyjvycazfkh") re.allchar (str.to_re "ujkwerugnlqisbwjcgxzxvtjv") re.allchar (str.to_re "vse") (re.* re.allchar) (str.to_re "d") (re.* re.allchar) (str.to_re "fracsuvobagltpmngmmmdvzd") re.allchar (str.to_re "lkac") )   (re.++ (str.to_re "jlitvxpogfmtaojndpiepqr") re.allchar (str.to_re "xogbbzxqjglpzaabhasiyxsxdwpkokt") (re.* re.allchar) (str.to_re "uoov") (re.* re.allchar) (str.to_re "spqnomst") (re.* re.allchar) (str.to_re "bud") (re.* re.allchar) (str.to_re "ux") (re.* re.allchar) (str.to_re "hyhcdbwayhjedk") re.allchar (str.to_re "qkbkscsal") (re.* re.allchar) (str.to_re "wprvvcrhqhnkb") re.allchar (str.to_re "dqxuxptydofoyupxbqfdqjmpbctsaagsmagdcx") re.allchar (str.to_re "mvkshthjgbsm") re.allchar (str.to_re "fzhuiaygllvwyzhe") re.allchar (str.to_re "b") re.allchar re.allchar (str.to_re "ffy") re.allchar (str.to_re "ez") (re.* re.allchar) (str.to_re "ifcovecmkbyephzumxjaxaf") (re.* re.allchar) (re.* re.allchar) (str.to_re "yhyjb") re.allchar (str.to_re "rilswdmqdtkhdzxivxfgxvnq") re.allchar (str.to_re "yxkc") re.allchar (str.to_re "lcmrnxdkes") re.allchar (str.to_re "eaayun") re.allchar (str.to_re "tsbpbwmmdmkdrilcvfxyffzcybltezozanriaczjpejbjiaqunpfmd") re.allchar (str.to_re "bdrixjevswy") (re.* re.allchar) (str.to_re "mmjqmz") (re.* re.allchar) (str.to_re "d") re.allchar (str.to_re "hcqto") re.allchar (str.to_re "vvweumxoi") (re.* re.allchar) (str.to_re "zzckuq") (re.* re.allchar) (str.to_re "oydofanealjgybwlf") re.allchar (str.to_re "bprhisowibvkchvftnhqjmtigxizgmbvamwjdrlrkikysnx") re.allchar (str.to_re "svmctzabdqwocnn") (re.* re.allchar) (str.to_re "cnpr") (re.* re.allchar) (re.* re.allchar) (str.to_re "ejcqrbpimqnmoseelmrrsmerlnelaogfiqk") re.allchar (str.to_re "xilqhwhiyogxsjjlnfbtdxnnxghhfam") (re.* re.allchar) (str.to_re "hgxckog") (re.* re.allchar) (str.to_re "ffrrxy") re.allchar (str.to_re "cfnodlgnblh") re.allchar (str.to_re "akwgreokix") re.allchar (str.to_re "kmcyabeejfpyz") (re.* re.allchar) (str.to_re "qufxxrsjvsttptqauitmagnee") (re.* re.allchar) (str.to_re "yrjqkllwnjkqypbru") re.allchar (str.to_re "iqcfxznhronyhp") (re.* re.allchar) (str.to_re "vlgbehavb") re.allchar (str.to_re "cjjbcnbjrfhpbsqfuvlhoipfqilgsevwdpqzulowpsxgqtcrozohwjhelicalexiylbhqge") (re.* re.allchar) (str.to_re "cdlf") re.allchar (str.to_re "ksmarskjolresqlm") re.allchar (str.to_re "rlopun") re.allchar (str.to_re "hiuqwbjxwvbegmmhbcvbnpxxexvmcbtbk") (re.* re.allchar) (str.to_re "xbzfgsu") re.allchar (str.to_re "d") re.allchar (str.to_re "cydrcibzflqrcmvfs") re.allchar (str.to_re "rgzgi") (re.* re.allchar) (str.to_re "kwenujydgtuv") (re.* re.allchar) (str.to_re "ce") (re.* re.allchar) (str.to_re "wgnuwmjtaejzlbqifmfb") (re.* re.allchar) (str.to_re "f") re.allchar (str.to_re "lzudekp") (re.* re.allchar) (str.to_re "d") (re.* re.allchar) (str.to_re "aymsyoxddvlzfsscnd") (re.* re.allchar) (str.to_re "xuufskqdliphlfltatt") (re.* re.allchar) (str.to_re "izzr") re.allchar (str.to_re "parcexacpwtmcnohsnegkxyfesnbrbtq") (re.* re.allchar) re.allchar (str.to_re "lafluomd") re.allchar (str.to_re "sooxvaldtt") (re.* re.allchar) (str.to_re "qgxvtga") (re.* re.allchar) (str.to_re "vranfbgxwjjjomsldzgrmbfvxujfrzaffrxgxjsktlc") (re.* re.allchar) (str.to_re "pqea") (re.* re.allchar) (str.to_re "llanubbuvabeszrt") (re.* re.allchar) (str.to_re "atvofpika") (re.* re.allchar) (str.to_re "iftom") re.allchar (str.to_re "myinjfkf") (re.* re.allchar) (str.to_re "envsn") (re.* re.allchar) (str.to_re "bdvowyoirnwsqrjswwlciovdrzqguusgwuokqyu") (re.* re.allchar) (str.to_re "o") re.allchar (str.to_re "jaaxeohkeyi") re.allchar (str.to_re "iuaxilmbjbmtox") re.allchar re.allchar (str.to_re "lahdmfanjmcojw") re.allchar re.allchar re.allchar (str.to_re "hkxetkno") (re.* re.allchar) (str.to_re "jmstgjuxxqetpngtyil") (re.* re.allchar) (str.to_re "yneitpkupaobzz") re.allchar (str.to_re "ovhxinrwncjqfgmnms") re.allchar (str.to_re "yakchjrzuozniazejyxzxqqjzoivdqbsemsydnnjgkpecxzmvuhpfjhetoqmimnapckyhwufygdcbcbvfzohhcmk") (re.* re.allchar) (str.to_re "evtnxzwlkcltgipo") (re.* re.allchar) (str.to_re "fylvjs") re.allchar (str.to_re "tfmmd") re.allchar (str.to_re "fhxejheirsbtqu") re.allchar (str.to_re "y") re.allchar (str.to_re "vdjihxtudzhvunqspm") (re.* re.allchar) (str.to_re "xgcssmvp") (re.* re.allchar) (str.to_re "lkclwhbhvps") re.allchar (str.to_re "fmbmxulyzlmojlfxvvuwayhbrwqwnsrslp") (re.* re.allchar) (str.to_re "iyffmuibcs") re.allchar (str.to_re "xtkkjoveimpfzpzmdmkukyhahpxvfvaoeihey") re.allchar (str.to_re "daveuolmtdlqyf") re.allchar (str.to_re "ldgacyubqpyrlmzwwyimimakkiwuecpgbpkrsr") (re.* re.allchar) re.allchar re.allchar (str.to_re "psfuc") re.allchar (str.to_re "zwcyi") re.allchar (str.to_re "uiyizvriuzi") (re.* re.allchar) (str.to_re "qetwqrdcfdypqqkvi") re.allchar (str.to_re "x") re.allchar re.allchar (str.to_re "ajiavzuvutczhgns") re.allchar (str.to_re "sqdsyhsoowvk") re.allchar (str.to_re "joqsdsgmiydlsndxiilffmfz") (re.* re.allchar) (str.to_re "kyfcfkjxnlqgpiyoklh") (re.* re.allchar) (str.to_re "lamopoawd") re.allchar (str.to_re "uohzos") (re.* re.allchar) (str.to_re "qajoruvhmfpziusdiirfrvmpbeatfgojyqxemjpmglyxwpcnpmosufmsvpcddfz") re.allchar (str.to_re "wvwhhepqq") re.allchar (str.to_re "ertrddawuokycmowxlowz") (re.* re.allchar) (str.to_re "qcgjrtkfkhfudhspclvkzlegg") re.allchar (str.to_re "otxihdtmulsrsaiytrrbmbgjcedaxxqeanenazpnga") re.allchar (str.to_re "uyrjaiaiowjieatgthb") (re.* re.allchar) (str.to_re "jzgzydemkgdagcumbbzxz") (re.* re.allchar) (str.to_re "lm") re.allchar (str.to_re "ckwsrqqokxxlpyam") (re.* re.allchar) (str.to_re "nag") (re.* re.allchar) (str.to_re "iswrutqlyesusavj") (re.* re.allchar) (str.to_re "pdqeoppwvqvlunsvmzhrxhtwcgrqzdaqsjd") (re.* re.allchar) (str.to_re "u") (re.* re.allchar) (str.to_re "ybti") (re.* re.allchar) (str.to_re "hobdkrrnbbjqb") re.allchar (str.to_re "cxctdmiafuwwqrgkjiwrvglgazejaxhfwjwcvb") re.allchar (str.to_re "epsrrmpfaphqhnimdindbhddbfi") re.allchar (str.to_re "hsoupmgwknjkuhkkdb") (re.* re.allchar) (str.to_re "ag") (re.* re.allchar) (str.to_re "dyrfu") re.allchar (str.to_re "toforr") re.allchar (str.to_re "zaqjhjifqrlfazvimoyqewhjbsspte") re.allchar (str.to_re "imocdsakybbv") (re.* re.allchar) (str.to_re "dhhowdkhxqqeeyhdg") re.allchar (str.to_re "cfizgjcw") (re.* re.allchar) (str.to_re "cgzztmql") re.allchar (str.to_re "xmcwwycgwitx") (re.* re.allchar) (str.to_re "msbavhmnjjrj") re.allchar (str.to_re "jae") (re.* re.allchar) (str.to_re "wyiwxenernnnlt") (re.* re.allchar) (str.to_re "u") re.allchar (str.to_re "fuaazv") re.allchar (str.to_re "quheciagzzrtcsmwqpezkovtdyvjbmiqteqgulprnsjrle") (re.* re.allchar) re.allchar (str.to_re "ht") re.allchar (re.* re.allchar) (str.to_re "kuclmpoamjujstgwvawutisvhbq") (re.* re.allchar) (str.to_re "weynurwhgk") (re.* re.allchar) (str.to_re "bpd") re.allchar (str.to_re "kakqmtqale") (re.* re.allchar) (str.to_re "nv") (re.* re.allchar) (str.to_re "tepxfxihrkpmupiwglnqocqddswiynyzmrm") re.allchar (str.to_re "nmm") re.allchar (str.to_re "mp") (re.* re.allchar) (str.to_re "udk") re.allchar (str.to_re "xmyg") (re.* re.allchar) (str.to_re "yut") re.allchar (str.to_re "hqrpr") re.allchar (str.to_re "cpeagpsmlhwuyqsvuocblsrkgkdka") re.allchar (str.to_re "lnviibmz") re.allchar re.allchar (str.to_re "gu") re.allchar (str.to_re "bvpxgkqmfibknwoxfrhuiqzyviuvq") re.allchar (str.to_re "ikjxirc") (re.* re.allchar) (str.to_re "q") (re.* re.allchar) (str.to_re "sshycv") re.allchar (str.to_re "iegyvcbadcbfcwd") re.allchar (re.* re.allchar) (str.to_re "cibnq") (re.* re.allchar) (str.to_re "kkkpddbqoppnkzmsvttulgdrpqghlnuwjorvibtnblsnst") (re.* re.allchar) (str.to_re "dixmrtflp") (re.* re.allchar) (str.to_re "eshzeb") (re.* re.allchar) (str.to_re "lpdbyga") re.allchar (str.to_re "fdlea") re.allchar (str.to_re "eixxzv") (re.* re.allchar) (str.to_re "o") (re.* re.allchar) (str.to_re "lwultdstvbgtvxmbfdupjmyynauxxohcmrxnaxzkrtsu") (re.* re.allchar) (str.to_re "tsumjeacsyttwdycmigxzoifzyv") (re.* re.allchar) (str.to_re "ityqozebfahgwoqdcevd") (re.* re.allchar) (str.to_re "xx") (re.* re.allchar) (str.to_re "lvdwojzkp") (re.* re.allchar) (str.to_re "fhzqa") re.allchar (str.to_re "q") (re.* re.allchar) (str.to_re "kl") re.allchar (str.to_re "waivptjzsrzsudvmmkzcctaaw") (re.* re.allchar) (str.to_re "d") re.allchar (str.to_re "cffvxpogyrdhlnrzn") re.allchar (str.to_re "p") (re.* re.allchar) (str.to_re "mtgelot") (re.* re.allchar) (str.to_re "inlsasifkkofu") re.allchar (str.to_re "zbkbqnvpdbdequxydtpukb") re.allchar (str.to_re "mssrzigjfcvboekhnspcufzpqpyc") (re.* re.allchar) (str.to_re "wtgkcjd") (re.* re.allchar) (str.to_re "zqbhiaufnyyaabdvlf") (re.* re.allchar) (str.to_re "pckkayls") (re.* re.allchar) (str.to_re "hqvcdcelyjtlgkqzr") (re.* re.allchar) (str.to_re "zhzdlpmtu") (re.* re.allchar) (str.to_re "jww") re.allchar (str.to_re "v") (re.* re.allchar) (str.to_re "gnpgftmqstpmchmscgtgtusduguo") (re.* re.allchar) (str.to_re "clllthhyg") re.allchar (str.to_re "okymmorwjphyjtdeyvkib") (re.* re.allchar) (re.* re.allchar) (str.to_re "mbvwn") re.allchar (str.to_re "mfykrharo") re.allchar (str.to_re "tor") (re.* re.allchar) (str.to_re "lupkdwdupzrfeishvhqcjzzyeg") (re.* re.allchar) (str.to_re "znexyltxvhmwgb") (re.* re.allchar) (str.to_re "hkdsfqlmftruwcdmh") re.allchar (str.to_re "dfltjbfcogoxxcjeaarocmvytpmwrkzz") re.allchar (str.to_re "gxfrwgzu") )  )))
(check-sat)
(exit)
